
 102   30
  10   10   10   10   10   10   10   10   10   10   10   10   10   10   10   10   10   10   10   10   10   10   10   10   10   10   10   10   10   10

   0   0   0   0   0   0   0   0   0   0   0   0   0   0   0   0   0   0   0   0   0   0   0   0   0   0   0   0   0   0   0  29 2 3 4 5 6 7 8 9 10 11 12 13 14 15 16 18 19 20 21 23 24 25 27 29 30 32 33 39 45 
   8   0   0   0   0   0   0   0   0   0   0   0   2   0   0   0   0   0   0   1   0   2   0   0   0   0   0   1   1   3   0  18 101 74 72 71 62 61 60 59 51 49 47 46 44 37 36 35 28 22 
   8   1   0   1   0   0   0   1   2   0   0   0   0   0   0   0   1   0   0   0   0   0   0   2   0   0   1  10   0   0   0  23 101 100 98 97 74 73 72 71 70 69 65 64 62 60 56 55 54 52 51 49 48 42 38 
   3   0   1   0   0   0   0   0   0   0   0   1   0   0   0   0   0   0   0   0   0   0   2   0   0   2   0   0   0   0   0  18 99 98 97 74 72 71 64 61 60 59 58 57 54 51 49 47 36 26 
   6   0   0   0   0   0   0   0   0   0   0   0   6   0   1   0   0   0   0   0   0   0   0   0   0   0   0   0   0   0   1  18 101 99 97 70 69 64 60 59 57 55 54 52 51 48 47 40 38 35 
  10   7   0   9   1   0   0   0   0   0   0   6   6   0   0   0   0   1   0   0   0   0   5   0   0   0   0   0   0   0   0  17 101 100 99 98 96 94 74 70 59 57 54 51 50 48 43 36 34 
  10   0   0   0   0   0   0   0   0   0   1   8   0   0   0   0   0   0   0   5   0   0   8   0   0   0   0   0   0   0   0  11 99 71 65 64 63 62 61 58 54 48 17 
   9   0   0   5   0   0   0   4   0   0   0   0   0   0   0   0   0   0   0   0   2   0   0   0   0   0   0   0   7   0   0  15 100 98 94 93 69 65 64 63 62 60 55 54 46 42 28 
  10   0   0   0   6   0   0   0   0   0   0   7   0   0   0   1   5   0   0   0   0   0   0   0   0   0   0   0   0   0   0  14 98 92 74 68 64 62 59 56 55 52 50 48 46 31 
   1   2   0   0   0   1   1   0   0   0   0   0   0   1   0   0   0   0   0   0   0   9   0   0   0   0   0   0   0   0   4  16 100 99 98 86 73 70 69 68 62 61 60 59 56 51 44 43 
   6   0   0   0   0   0   0   0   0   0   0   0   0   0   0   0   0   0   0   0   0   0   0   0   0   0   0   0   0   0   0  15 100 99 98 96 73 71 69 61 59 58 55 53 49 43 41 
   2   0   0  10   0   0   0   0   0   0   0   0   0   0   0   0   0   0   0   0   0   0   0   0   0   0   0   0   0   0   0  15 100 99 98 73 69 68 65 64 61 60 58 54 52 50 48 
   8   0   0   0  10   0   0   0   0   0   0   0   0   0   0   0   0   0   0   0   0   0   0   0   0   0   0   0   0   0   0  10 99 70 63 56 54 50 48 42 40 37 
   4   0   0   0   0   8   0   0   0   0   0   0   0   0   0   0   0   0   0   0   0   0   0   0   0   0   0   0   0   0   9  15 98 73 71 70 69 68 66 64 60 59 55 52 51 46 35 
   5   0   0   0   0   0   0   0   0   0   0   0   0   0   0   0   0  10   0   0   0   6  10   0   0   0   0   0   0   0   0  12 100 74 73 70 66 63 62 57 55 42 35 34 
   8   0   0   0   0   0   0   0   0   0   0   0   0   0   0   0   0   0   0   0   0   0   0   5   0   4   0   0   0   0   0  15 100 98 97 93 90 89 74 72 71 69 68 58 56 52 41 
   4   4   0   0   0   8   0   0   0   0   0   0   8   0   0   0   0   0   0   0   0   0   0   0   0   0   0   3   0   0   0  15 100 98 97 94 93 89 85 72 70 69 66 60 55 52 42 
   5   0   0   7   0   0   0   0   0   2   0   4   4   0   6   0   0   0   1   0   0   0   0   0   0   0   6   5   0   0   0  13 100 99 98 90 74 68 67 66 63 61 55 52 35 
   5   0   0   0   0   0   0   0   0   0   0   0   0   0   0  10   0   0   0   0   0   0   0   0   0   0   0   0   0   0   0  13 100 99 97 94 93 81 74 72 68 62 55 48 44 
   6   0   0   0   0   0   3   0   0   0   0   7   0   0   0   2   6   0   0   0   0   0   0   0   0   0   0   0   0   0   0  15 100 99 93 89 78 73 70 69 65 63 61 60 56 55 48 
   9   0   0  10   0   0   0   7   0   7   0   0   6   0   7   0   0   8   0   0   0   0   0   0   0   0   0   0   0   0   0  14 97 96 94 93 92 71 70 69 68 67 66 65 55 46 
   8   0   0   0   0   0   0   0   0   0   0   0   4   0   0   8   0   0   0   0   0   5   0   0   0   0   0   6   0   0   0  15 100 98 94 92 89 88 81 80 79 69 66 65 58 57 52 
   8   0   0   4   0   0   0   0   0   0   0   1   0   0   0   0   0   0   0   0   0   0   0   0   0   5  10   6   0   0   0  11 95 91 89 80 79 63 61 60 58 54 49 
   6   0   0   0   0   0   0   9   0   0   0   0   8   0   0   0   8   0   0   0   5   0   0   0   0   0   0   0  10   0   0  10 99 93 89 87 85 70 69 66 65 42 
   7   0   0   0   0   0   0   0   0   0   3   0   0   0   0   5   0   0   0   0   0   0   0   0   2   0   0   0   0   0   0  17 100 99 94 88 87 86 85 83 79 78 72 71 70 69 66 65 64 
   7   0   0   0   0   0   0   0   1   0   0   0   0   0   0   0   0   0   0   0   0   0   0   0   0   0   0   0   0   0   0  15 101 94 93 92 90 88 85 83 80 79 70 68 65 63 52 
   5   0   0   0   0   0   0   0   0   0   0   0   0   0   0   0   0   0   5   7   0   0   0   0   0   0   0   7   0   4   0  15 98 94 93 88 86 84 83 80 79 72 70 69 68 67 52 
   5   0   0   0   0   0   0   0   0   0   8   0   0   9   0   0   0   0   0   0   0   0   0   0   0   0   0   0  10   0   6  12 97 92 89 87 85 84 78 73 70 68 66 48 
   9   0   0   0   8   0   5   0   0   0   0   5   0   0   0   2   0   0   0   0   0   0   0   0   4   9   0   0   0   0   0  12 89 88 86 85 80 79 78 69 68 66 59 57 
   9   0   0   0   4   0   4   0   0   0   0   0   0   0   0   0   0   0   0   0   0   0   0   0   0   0   0   0   0   0   0  13 97 96 88 87 85 82 81 79 69 68 66 64 60 
   7   0   0   5   0   0   0   0   0   0   0   0   0   0   0   0   8   0   0   0   0   0   0   0   0   7   0   0   0   0   0  12 96 95 94 93 90 86 85 83 78 70 66 51 
   8   4   0   0   6   0   0   7   0   0   0   0   0   0   0   6   5   0   0   0   0   0   0   0   0   0   0   0   0   0   3  12 93 89 88 87 81 80 79 75 72 71 58 54 
   9   0   0   0   0   4   0   0   0   0   0   0   0   0   0   0   0   0   0   0   0   0   0   0   0  10   0   0   0   4   0  12 99 95 93 87 83 80 79 76 71 70 68 54 
   8   0   0   0   0   0   0   0   0   0   0   0   3   0   0   0   0   0   0   0   5   0   0   0   0   0   0   0   0  10   0  15 97 93 90 89 86 85 83 82 81 80 75 72 71 69 65 
   5   0   0   0   0   0   5   0   0   0   0   0   0   0   0   0   0   5   0   0   0   0   0   0   0   6   8   0   0   0   0  13 93 92 91 89 88 87 82 81 79 77 75 65 58 
   9   0   4   0   0   0   9   0   0   0   0   0   0   0   0   0   0   0   0   0   0   0   0   0   0   0   0   0   0   0   0  12 93 90 89 87 86 85 81 78 77 76 69 55 
   9   0   0   0   0   0   0   0   0   0   0   0   0   0   0   0   0   0   0   0   9   0   0   2   0   0   0   0   0   3   0  11 97 94 91 87 86 81 79 78 66 65 57 
   3   0   0   9   0   0   0   0   0   0   0   0   0   0   0   8   0   0   0   0   0   0   0   0   4   0   0   0   0   0   7  14 94 91 89 88 87 86 84 83 80 79 78 68 67 66 
   1   0   0   0   0   0   0   0   9   0   0   0   0   0   0   0   0   0   0   0   0   0   0   0   5   4   0   0   0   0   0  14 98 97 94 87 85 82 81 80 79 78 77 75 69 65 
   7   0   0   0   0   0   0   0   0   0   0   0   0   0   0   0  10   0   0   0   0   0   0   0   0   0   0   9   9   0   0  12 98 96 95 94 90 87 82 81 77 75 67 58 
   5   0   0   0   0   0   0   0   0   0   0   0   0   0  10   5   0   0   0   0   0   0   7   0   9   0   0   0   0   0   0  12 94 88 86 85 84 83 80 79 78 67 66 63 
   6   0   0   0   0   0   0   0   0   0   0   8   0   0   0   0   0   0   0   0   8   0   0   0   0   0   0   0   0   0   8  11 92 90 88 86 82 80 79 78 68 67 59 
   3   0   6   9   0   0   0   0   0   0   0   9   0   0   0   0   5   9   0   6   0   0   0   0   0   0   0   0   0   0   0  12 97 95 93 90 87 83 81 79 78 76 66 64 
   7   0   7   0   0   0   0   0   0   0   8   0   0   0   0   6   8   0   0   0   0   0   6   0   0   0   0   0   0   0   6  10 96 92 90 88 85 82 79 77 65 64 
   8   0   8   2   0   0   0   0   0   0   0   0   0   0   0   0   0   0   0   6   0   0   0   0   0   0   0   0   0   0   0  10 94 88 82 81 80 79 76 75 71 58 
   9   0   0   0   0   0   0   0   0   0   4   0   7   0   0   8   0   0   0   0   0   0   0   4   0   0   0   0   0   0   0   9 99 89 88 84 82 79 77 75 58 
  10   0   0   0   0   0   0   4   0   0   0   0   0   0   0   0   0   0   0   0   0   0   0   0   0   0   0   0   5   8   0  11 94 89 88 86 82 80 79 78 77 76 68 
   9   0   0   0   0   0   0   0   0   0   0   4   0   0   0   0   0   4   0   0   0   0   0   0   0   0   0   0   0   0   0  10 95 90 88 86 83 82 80 79 75 67 
   4   0   0   8   0   0   0   0   0   0   0   0   6   0   0   0   0   0   0   6  10   0   0   0   0   0   0   0   0   0   0   9 93 85 84 82 81 78 75 67 66 
   5   0   0   0   0   0   0   0   0   0   0   0   0   0   0   0   0   4   0   0   0   0   0   0   0   6   0   0   0   0   0   9 97 93 90 81 80 77 75 71 67 
   5   0   0   0   0   4   0   7   0   0   0   0   0   0   0   0   0   0   0   7   0   0   0   0   0   0   0   0   0   0   0   6 84 80 79 77 76 63 
   1   0   8   0   0   0   6   0   0   0   0   0   0   0   0   0   0   7   0   0   0   5   0   0  10   0   0   0   0   0   0   8 96 95 91 87 82 78 77 76 
  10   0   0   6   0   0   0   0   0   0   0   0   0   0   0   0   0   0   0   0   0   0   0   0   0   0   0   0   0  10   0   7 89 80 78 77 76 75 72 
   9   0   0   5   0   0   0   0   0   0   0   0   0   0   0   0   0   0   0   0   0   6   0   0   0  10   0   9   9   0   0   6 92 85 84 82 78 66 
   4   0   0   0   0   0   0   0   0   0   0   0   0   0   3   0   0   0   9   0   0   0   0   0   0   0   0   0   0   0   0   6 91 83 82 80 79 75 
   2   0   0   0   0   8   6   0   8   0   0   0   0   0   0   0   7   0   0   0   0   0   0   0   0   0   0   0   0   0   0   6 88 83 82 77 76 75 
   2   8   0   0   0   0   0   0   0   0   0   0   0   0   0   0   0   0   0   8   0   0   0   0   0   0   0   0   0   6   0   5 90 82 77 75 67 
   3  10   4   5   5   0   0   0   0   0   0   0   9   0   0   0   0   0   0   0   0   0   0   0   5   0   0   0   0   0   0   4 86 85 83 78 
   7   0   0   0   7   0   0   0   0   0   0   0   0   5   0   8   0   0   0   0   0   0   0   0   0   0   0   0   0   0   0   4 84 83 81 77 
   5   7   0   0   0   0   4   0   0   0   0   9   0   0   0   0   0   0  10   6   0   0   5   0   0   0   0   0   0   0   0   4 90 83 76 75 
   3   0   0   0   0   0   0   0   0   0   0   0   5   0   0   0   0   0   0   0   0   0   0   0   0   0   0   0   0   0   0   4 94 85 76 75 
   2   0   8   0   0   0   0   0   0   0   0   0   9   0   0   0   0   0   0   5   0   0   0   0   0  10   0   0   0   0   0   4 89 79 76 75 
   6   0   0   0   8   0   6   7   0   0   0   0   0   9   0   0   0   0   0   0   5   0   0   0   0   0   6   0   0   0   0   3 87 81 75 
   8   0   7   0   0   0   9   0   0   0   0   0   0   0   0   0   0   0   0   0   0   0   0   0   0   0   0   0   3   0   0   3 89 80 75 
   7   0   0   0   0   0   0   0   0   0   8   0   0   0   0   0   0   0   0   0   0   4   0   0   0   0   0   0   0   7   0   2 84 76 
   7   0   0   0  10   0   9   9   0   0   0   0   0   5   0   0   3  10   0   0   0   0   0   4   0   0   0   0   0   0   0   1 77 
  10   0   0   9   0   0   0   0   0   0   0   0   0   0   0  10   0   0   0   0   0   0   0   0  10   0   0   0   6   0   0   1 76 
   4   0   0   6   8   0   0   0   0   0   0   0   0   0   0   0   0   0   0   0   0   0   0   0   0   0   5   0   0   0   0   1 75 
   4   0   0   0   0   0   0   0   0   0   7   0  10   0   0   0   0   0   0   0   0   0   0   0   0   0   0   0   0   0   7   1 91 
   7   0   0   0   0   7   0   7   0   0   0   7   5   0   0   0   0   0   0   0   0   0   0   0   0   0   0   0   0   0   0   1 81 
   8   0   0   0   0   0   0   0   0   0   0   0   0   7   0   0   0   0   6   7   0   0   8   0   0   4   0   0   0   0   0   1 84 
   3   0   0   0   4   0   0   0   0   0   0   0   0   0   0   0   0   0   0   0   8   0   0   0   0   0   0   0   0   0   0   1 92 
   5   0   0   0   3   0   0   0   7   0   0   0   5   0   0   4   0   0   0   0   0   0   0   9   0   0   3   7   0   0   0   1 77 
   9   0   0   0   0   6   0   0   0   0   0   0   0   0   0   0   0   0   0   0   0   0   0   0   0   0   0   5   0   0   0   1 78 
   5   0   0   0   0   0   0   0   0   0   0   0   0   0   0   0   0   0   0   7   0   0   0   0   0   0   0   0   0   0   0   1 102
   6   0   0   0   0   9   0   0   6   0   5   0   0   0   0   0   0   0   0   0   0   4   5   0   0   0   6   0   0   4   0   1 102
   4   0   0   0   7   0   0   0   0   0   0   0   0   0   0   0   0   0   0   0   0   6   0   0   0   0   0   0   0   0   7   1 102
   8  10   0   0   0   0   0   6   0   0   0   0   0   0   0   0   0   0   0   0   5  10   0   0   0   0   0   0   0   0   0   1 102
   7   0   4   0   0   0   0   0  10   0   0   0   0   0   0   0   0   0   0   0   0   0   0   0   0   0   0   0   0   0   0   1 102
   5   6   0   0   0   0   0   0   0   0   0   0   0   0   0   0   0   0   0   0   0   0   4  10   0   0   0   0   0   0   0   1 102
   7   0   0   5   0   0   0   0   0   0   9   0   0   0   0   0   5   0   0   0   3   0   0   7   4   0   0   0   4   0   0   1 102
   5   0   8   5   0   6   0   0   0   0   0   0   0   0   0   0   0   0   0   0   0   0   0   0   0   0   0   0   0   9   0   1 102
   5  10   0   0   0   4   0   0   0   0   7   6   0   7   0   5   0   0   0   0   0   0   0   0   0   1   0   0   7   5   0   1 102
   9   0   0   4   0   0   0   0   0   0   6   7   0   0  10   0   0   0   0   6   0   5   0   0   0   0   0   0   0   0   8   1 102
   3   4   6   5   0   0   0   0   0   0   0   0   0   0   0   0   0   0   0   0   0   9   0   4   0   0   0   0   0   0   0   1 102
   8   0   0   0   0   7   8   0   0   0   0   0   0   0   0   0   0   3   0   0   0   0   0   0   0   0   0   4   0   0   0   1 102
   9   0   0   0   0   0   0   0   0   0   0   0   5   0   0   0   6   0   0   0   0   0   0   0   0   0   0   0   5   0   0   1 102
  10   0   0   0   0   5   0   0   0   0   0   0   8   0   0   0   0   0   6   0   0   0   0   0   0   0   0   0   0   0   0   1 102
   3   5   0   0   5   0   0   0   0   0   0   0   0   0   0   0   8   0   0   0   0   0   0   0   0   0   0   0   0   5   0   1 102
   9   0   0   0   4   0  10   0   0   0   0   0   0   0   0   0   0   0   0   0   0   6   0   0   0   0   0   0   0   0   0   1 102
   2   0   0   0   0   0   0   0   4  10   0   0   0   0   0   0   6   0   0   0   0   0   0   5   0   6   9   0   0   0   0   1 102
   6   0   0   0   0   0   0   6   7   0   0   0   0   0   0   0   0   0   0   0   0   0   0   0   0   0   0   0   0   0   0   1 102
   6   0   0   0   0   0   7   4   0   0   0   0   0   0   0   0   0   0   0   0   0   0   0  10   0   0   0   0   5   5   0   1 102
   4   0   0   3   0   6   0   0   0   0   0   0   0   0   0   0   0   0   0   0   0   0   0   0   0   0   0   0   0   0   0   1 102
   8   0   0   0   0   0   0   0   0   0   0   0   0   0   0   9   0   0   0   0   0   0   0   0   0   0   0   0   0   0   0   1 102
  10   0   0   0   6   0   0   8   0   6   0   0   0   0   0   7   5   0   0   7   0   0   0  10   0   0   0   0   0   0   0   1 102
   3   0   0   0   0   0   4   0   0   0   0   0   0   0   0   5   0   0   0   0   0   0   0   0   0   0   0   0   0   0   0   1 102
   9   0   7   0   0   0   0   5   0   0   0   0   0   0   6   0   0   0   0   0   0   0   0   0   0   0   0   0   0   0   0   1 102
   1   0   0   0   0   0   0   0   0   0   0   6   0   0   5   0   0   0   0   0   0   0   0   0   0   0   0   0   0   0   0   1 102
   1   0   0   0   0   0   0   6   0   0   0   7   4   0   0   5   0   5   5   0   0   0   0   0   0   0   0   0   3   0   0   1 102
   1   0   0   0   0   7   0   5   0   5   0   0   0   5   0   0   0   0   0   0   0   7   0   0   7   0   0   6   0   7   0   1 102
   0   0   0   0   0   0   0   0   0   0   0   0   0   0   0   0   0   0   0   0   0   0   0   0   0   0   0   0   0   0   0   0 
